(set-logic HORN)
(set-info :source |
    Benchmark: C_VC
    Output by Princess (http://www.philipp.ruemmer.org/princess.shtml)
|)
(set-info :status sat)
(declare-fun inv_main29 (Int Int Int Int Int Int Int Int) Bool)
(declare-fun inv_main30 (Int Int Int Int Int Int Int Int) Bool)
(declare-fun inv_main31 (Int Int Int Int Int Int Int Int) Bool)
(declare-fun inv_main32 (Int Int Int Int Int Int Int Int) Bool)
(declare-fun inv_main4 (Int Int Int Int Int Int Int Int) Bool)
(assert (forall ((var0 Int) (var1 Int) (var2 Int) (var3 Int) (var4 Int) (var5 Int) (var6 Int) (var7 Int)) (or (not (and (and (and (and (and (and (<= 0 var7) (<= 0 var6)) (<= 0 var5)) (<= 0 var4)) (<= 0 var3)) (<= 0 var2)) (and (<= 0 var1) (<= 0 var0)))) (inv_main4 var1 var0 var7 var6 var5 var4 var3 var2))))
(assert (forall ((var0 Int) (var1 Int) (var2 Int) (var3 Int) (var4 Int) (var5 Int) (var6 Int) (var7 Int) (var8 Int) (var9 Int) (var10 Int) (var11 Int) (var12 Int) (var13 Int) (var14 Int) (var15 Int) (var16 Int) (var17 Int) (var18 Int) (var19 Int) (var20 Int) (var21 Int) (var22 Int) (var23 Int) (var24 Int) (var25 Int) (var26 Int) (var27 Int) (var28 Int) (var29 Int) (var30 Int) (var31 Int) (var32 Int) (var33 Int) (var34 Int) (var35 Int) (var36 Int) (var37 Int) (var38 Int) (var39 Int) (var40 Int) (var41 Int) (var42 Int) (var43 Int) (var44 Int) (var45 Int) (var46 Int) (var47 Int) (var48 Int) (var49 Int) (var50 Int) (var51 Int) (var52 Int) (var53 Int) (var54 Int) (var55 Int) (var56 Int) (var57 Int) (var58 Int) (var59 Int) (var60 Int) (var61 Int) (var62 Int) (var63 Int) (var64 Int) (var65 Int) (var66 Int)) (or (not (and (inv_main4 var52 var51 var50 var49 var48 var47 var46 var45) (and (and (and (and (and (not (= var44 0)) (and (and (and (and (and (and (and (and (= var43 var42) (= var41 var40)) (= var39 var38)) (= var37 var36)) (= var35 var34)) (= var33 var32)) (= var31 var30)) (= var29 var28)) (or (and (<= 0 (+ (+ var40 (- 2)) (- 1))) (= var44 1)) (and (not (<= 0 (+ (+ var40 (- 2)) (- 1)))) (= var44 0))))) (and (and (not (= var27 0)) (and (and (and (and (and (and (and (and (= var42 var26) (= var40 var25)) (= var38 var50)) (= var36 var49)) (= var34 var48)) (= var32 var47)) (= var30 var46)) (= var28 var45)) (or (and (and (and (and (<= 0 (+ (+ 8 (* (- 1) (+ 4294967295 (* (- 8) var53)))) (- 1))) (<= 0 (+ (+ 8 (* 1 (+ 4294967295 (* (- 8) var53)))) (- 1)))) (not (<= 0 (+ (* (- 1) (+ 4294967295 (* (- 8) var53))) (- 1))))) (<= 0 (+ (+ var53 (* (- 1) var26)) (- 1)))) (= var27 1)) (and (not (or (not (and (and (<= 0 (+ (+ 8 (* (- 1) (+ 4294967295 (* (- 8) var54)))) (- 1))) (<= 0 (+ (+ 8 (* 1 (+ 4294967295 (* (- 8) var54)))) (- 1)))) (not (<= 0 (+ (* (- 1) (+ 4294967295 (* (- 8) var54))) (- 1)))))) (<= 0 (+ (+ var54 (* (- 1) var26)) (- 1))))) (= var27 0))))) (and (<= 0 var25) (<= 0 var26)))) (and (and (and (and (and (and (and (= var24 var43) (= var23 var41)) (and (and (and (and (and (or (and (<= 0 var41) (<= 0 (+ (+ var41 (* (- 1) var55)) (- 1)))) (and (not (<= 0 var41)) (<= 0 (+ (+ (* (- 1) var41) (* (- 1) var55)) (- 1))))) (or (and (<= 0 var41) (<= 0 (+ (+ var41 (* 1 var55)) (- 1)))) (and (not (<= 0 var41)) (<= 0 (+ (+ (* (- 1) var41) (* 1 var55)) (- 1)))))) (or (not (<= 0 (+ var55 (- 1)))) (<= 0 (+ var43 (- 1))))) (or (not (<= 0 (+ (* (- 1) var55) (- 1)))) (<= 0 (+ (* (- 1) var43) (- 1))))) (= var43 (+ (* var56 var41) var55))) (= var22 var55))) (= var21 var37)) (= var20 var35)) (= var19 var41)) (= var18 var31)) (= var17 var29))) (and (and (and (and (and (and (and (= var16 var24) (= var15 var23)) (= var14 var22)) (and (and (and (and (and (or (and (<= 0 (+ var19 (- 2))) (<= 0 (+ (+ (+ var19 (- 2)) (* (- 1) var57)) (- 1)))) (and (not (<= 0 (+ var19 (- 2)))) (<= 0 (+ (+ (* (- 1) (+ var19 (- 2))) (* (- 1) var57)) (- 1))))) (or (and (<= 0 (+ var19 (- 2))) (<= 0 (+ (+ (+ var19 (- 2)) (* 1 var57)) (- 1)))) (and (not (<= 0 (+ var19 (- 2)))) (<= 0 (+ (+ (* (- 1) (+ var19 (- 2))) (* 1 var57)) (- 1)))))) (or (not (<= 0 (+ var57 (- 1)))) (<= 0 (+ var24 (- 1))))) (or (not (<= 0 (+ (* (- 1) var57) (- 1)))) (<= 0 (+ (* (- 1) var24) (- 1))))) (= var24 (+ (* var58 (+ var19 (- 2))) var57))) (= var13 var57))) (= var12 var20)) (= var11 var19)) (= var10 var18)) (= var9 0))) (and (and (and (and (and (and (and (= var8 var16) (= var7 var15)) (= var6 var14)) (= var5 var13)) (and (and (and (and (and (and (and (= var62 var16) (= var61 (+ var62 (* (- 1) (* var59 var60))))) (= var60 (+ var11 (- 2)))) (or (and (<= 0 var60) (<= 0 (+ (+ var60 (* (- 1) var61)) (- 1)))) (and (not (<= 0 var60)) (<= 0 (+ (+ (* (- 1) var60) (* (- 1) var61)) (- 1)))))) (or (and (<= 0 var60) (<= 0 (+ (+ var60 (* 1 var61)) (- 1)))) (and (not (<= 0 var60)) (<= 0 (+ (+ (* (- 1) var60) (* 1 var61)) (- 1)))))) (or (not (<= 0 (+ var61 (- 1)))) (<= 0 (+ var62 (- 1))))) (or (not (<= 0 (+ (* (- 1) var61) (- 1)))) (<= 0 (+ (* (- 1) var62) (- 1))))) (and (and (and (and (and (and (and (= var66 var16) (= var65 (+ var66 (* (- 1) (* var63 var64))))) (= var64 var11)) (or (and (<= 0 var64) (<= 0 (+ (+ var64 (* (- 1) var65)) (- 1)))) (and (not (<= 0 var64)) (<= 0 (+ (+ (* (- 1) var64) (* (- 1) var65)) (- 1)))))) (or (and (<= 0 var64) (<= 0 (+ (+ var64 (* 1 var65)) (- 1)))) (and (not (<= 0 var64)) (<= 0 (+ (+ (* (- 1) var64) (* 1 var65)) (- 1)))))) (or (not (<= 0 (+ var65 (- 1)))) (<= 0 (+ var66 (- 1))))) (or (not (<= 0 (+ (* (- 1) var65) (- 1)))) (<= 0 (+ (* (- 1) var66) (- 1))))) (= var4 (* 4 (+ var59 (* (- 1) var63))))))) (= var3 var11)) (= var2 var10)) (= var1 var9))))) (inv_main29 var8 var7 var6 var5 var4 var3 var0 var1))))
(assert (forall ((var0 Int) (var1 Int) (var2 Int) (var3 Int) (var4 Int) (var5 Int) (var6 Int) (var7 Int)) (or (not (and (inv_main32 var7 var6 var5 var4 var3 var2 var1 var0) (and (<= 0 (+ (+ var4 (* (- 1) (+ (* 2 var5) var3))) (- 1))) (and (<= 0 (+ var1 (* (- 1) var2))) (not (= var5 0)))))) (inv_main29 var7 var6 (+ (+ (+ (+ (* 2 var5) (* (- 1) var4)) var3) var2) 2) var5 (+ var3 4) (+ var2 2) var1 var5))))
(assert (forall ((var0 Int) (var1 Int) (var2 Int) (var3 Int) (var4 Int) (var5 Int) (var6 Int) (var7 Int)) (or (not (and (inv_main32 var7 var6 var5 var4 var3 var2 var1 var0) (and (and (<= 0 (+ (+ (* 2 var5) var3) (* (- 1) var4))) (<= 0 (+ (+ (+ (+ var2 var4) 2) (* (- 1) (+ (* 2 var5) var3))) (- 1)))) (and (not (<= 0 (+ (+ var4 (* (- 1) (+ (* 2 var5) var3))) (- 1)))) (and (<= 0 (+ var1 (* (- 1) var2))) (not (= var5 0))))))) (inv_main29 var7 var6 (+ (+ (* 2 var5) (* (- 1) var4)) var3) var5 var3 (+ var2 2) var1 var5))))
(assert (forall ((var0 Int) (var1 Int) (var2 Int) (var3 Int) (var4 Int) (var5 Int) (var6 Int) (var7 Int)) (or (not (and (inv_main32 var7 var6 var5 var4 var3 var2 var1 var0) (and (and (and (<= 0 (+ (+ (* 2 var5) var3) (* (- 1) var4))) (<= 0 (+ (+ (* 2 var5) var3) (* (- 1) (+ (+ var2 var4) 2))))) (<= 0 (+ (+ (+ (+ (* 2 var2) var4) 4) (* (- 1) (+ (* 2 var5) var3))) (- 1)))) (and (or (not (<= 0 (+ (+ (* 2 var5) var3) (* (- 1) var4)))) (not (<= 0 (+ (+ (+ (+ var2 var4) 2) (* (- 1) (+ (* 2 var5) var3))) (- 1))))) (and (not (<= 0 (+ (+ var4 (* (- 1) (+ (* 2 var5) var3))) (- 1)))) (and (<= 0 (+ var1 (* (- 1) var2))) (not (= var5 0)))))))) (inv_main29 var7 var6 (+ (+ (+ (+ (* 2 var5) (* (- 1) var4)) var3) (* (- 1) var2)) (- 2)) var5 (+ var3 (- 4)) (+ var2 2) var1 var5))))
(assert (forall ((var0 Int) (var1 Int) (var2 Int) (var3 Int) (var4 Int) (var5 Int) (var6 Int) (var7 Int)) (or (not (and (inv_main32 var7 var6 var5 var4 var3 var2 var1 var0) (and (or (or (not (<= 0 (+ (+ (* 2 var5) var3) (* (- 1) var4)))) (not (<= 0 (+ (+ (* 2 var5) var3) (* (- 1) (+ (+ var2 var4) 2)))))) (not (<= 0 (+ (+ (+ (+ (* 2 var2) var4) 4) (* (- 1) (+ (* 2 var5) var3))) (- 1))))) (and (or (not (<= 0 (+ (+ (* 2 var5) var3) (* (- 1) var4)))) (not (<= 0 (+ (+ (+ (+ var2 var4) 2) (* (- 1) (+ (* 2 var5) var3))) (- 1))))) (and (not (<= 0 (+ (+ var4 (* (- 1) (+ (* 2 var5) var3))) (- 1)))) (and (<= 0 (+ var1 (* (- 1) var2))) (not (= var5 0)))))))) (inv_main29 var7 var6 (+ (+ (+ (+ (* 2 var5) (* (- 1) var4)) var3) (* (- 2) var2)) (- 4)) var5 (+ var3 (- 8)) (+ var2 2) var1 var5))))
(assert (forall ((var0 Int) (var1 Int) (var2 Int) (var3 Int) (var4 Int) (var5 Int) (var6 Int) (var7 Int)) (or (not (inv_main31 var7 var6 var5 var4 var3 var2 var1 var0)) (inv_main32 var7 var6 var5 var4 var3 var2 var1 var0))))
(assert (forall ((var0 Int) (var1 Int) (var2 Int) (var3 Int) (var4 Int) (var5 Int) (var6 Int) (var7 Int)) (or (not (inv_main29 var7 var6 var5 var4 var3 var2 var1 var0)) (inv_main30 var7 var6 var5 var4 var3 var2 var1 var0))))
(assert (forall ((var0 Int) (var1 Int) (var2 Int) (var3 Int) (var4 Int) (var5 Int) (var6 Int) (var7 Int)) (or (not (inv_main30 var7 var6 var5 var4 var3 var2 var1 var0)) (inv_main31 var7 var6 var5 var4 var3 var2 var1 var0))))
(assert (forall ((var0 Int) (var1 Int) (var2 Int) (var3 Int) (var4 Int) (var5 Int) (var6 Int) (var7 Int)) (not (and (inv_main29 var7 var6 var5 var4 var3 var2 var1 var0) (not (= (+ (+ (+ (+ (* (* var2 var2) var3) (* (- 1) (* (* 2 var3) var2))) (* (- 1) (* (* 4 var5) var2))) (* (* 4 var4) var2)) (* 8 var5)) (* 8 var7)))))))
(assert (forall ((var0 Int) (var1 Int) (var2 Int) (var3 Int) (var4 Int) (var5 Int) (var6 Int) (var7 Int)) (not (and (inv_main30 var7 var6 var5 var4 var3 var2 var1 var0) (not (= (* var4 var0) (* var0 var0)))))))
(assert (forall ((var0 Int) (var1 Int) (var2 Int) (var3 Int) (var4 Int) (var5 Int) (var6 Int) (var7 Int)) (not (and (inv_main31 var7 var6 var5 var4 var3 var2 var1 var0) (not (= (+ (+ (+ (+ (+ (+ (+ (* (* var2 var2) var3) (* (- 1) (* (* 2 var2) var3))) (* (- 1) (* (* 4 var2) var5))) (* (* 4 var2) var0)) (* (* 4 var6) var4)) (* (- 1) (* (* 4 var6) var0))) (* (- 8) var7)) (* 8 var5)) 0))))))
(assert (forall ((var0 Int) (var1 Int) (var2 Int) (var3 Int) (var4 Int) (var5 Int) (var6 Int) (var7 Int)) (not (and (inv_main32 var7 var6 var5 var4 var3 var2 var1 var0) (not (= (+ (+ (+ (* var2 var4) (* (- 1) (* var2 var0))) (* (- 1) (* var6 var4))) (* var6 var0)) 0))))))
(check-sat)
